/*********************************************
    * Lab01 - simple
    * Author: Coso
    * Creation Date: Mar, 2019
    *********************************************/
instance_name = "small_instance_03_simple";

d = 2;
r = 3;

SCj = [118 140];
Dk = [89 21 24];

Cjk = [[30 80 50]
 [44 60 41]];
